NPROCS=0
This instance is clustered!
Gurobi Optimizer version 9.0.0 build v9.0.0rc2 (linux64)
Optimize a model with 34 rows, 290 columns and 578 nonzeros
Model fingerprint: 0xd98e532e
Variable types: 1 continuous, 289 integer (289 binary)
Coefficient statistics:
  Matrix range     [1e+00, 1e+00]
  Objective range  [1e+00, 2e+02]
  Bounds range     [1e+00, 1e+00]
  RHS range        [1e+00, 1e+00]
Presolve removed 2 rows and 48 columns
Presolve time: 0.00s
Presolved: 32 rows, 242 columns, 482 nonzeros
Variable types: 1 continuous, 241 integer (241 binary)

Root relaxation: objective 5.443614e+02, 42 iterations, 0.00 seconds

    Nodes    |    Current Node    |     Objective Bounds      |     Work
 Expl Unexpl |  Obj  Depth IntInf | Incumbent    BestBd   Gap | It/Node Time

     0     0  579.80180    0   20          -  579.80180      -     -    0s
 done with super cut 0
 done with super cut 1
 done with super cut 2
 done with super cut 3
H    0     0                     850.1009713  579.80180  31.8%     -    0s
     0     0  589.91235    0   14  850.10097  589.91235  30.6%     -    0s
     0     0  606.99356    0   13  850.10097  606.99356  28.6%     -    0s
     0     0  608.21437    0   20  850.10097  608.21437  28.5%     -    0s
 done with super cut 4
 done with super cut 5
 done with super cut 6
 done with super cut 7
 done with super cut 8
H    0     2                     759.6272235  610.18841  19.7%     -    1s
     0     2  610.18841    0   20  759.62722  610.18841  19.7%     -    1s
 done with super cut 9
 done with super cut 10
*  393   319              21     750.1826297  617.71181  17.7%   5.0    2s
* 3120  1652              28     736.5457328  651.40799  11.6%   4.7    2s
H 3561  1698                     730.5214120  653.86062  10.5%   4.8    3s
H 3574  1621                     720.8361550  653.86062  9.29%   4.8    3s
  3579  1624  699.35861   23   45  720.83615  653.86062  9.29%   4.8    5s

Cutting planes:
  Gomory: 7
  MIR: 7
  Zero half: 20
  RLT: 1
  Lazy constraints: 253

Explored 14857 nodes (91734 simplex iterations) in 7.55 seconds
Thread count was 12 (of 12 available processors)

Solution count 6: 720.836 730.521 736.546 ... 850.101

Optimal solution found (tolerance 1.00e-04)
Best objective 7.208361549581e+02, best bound 7.208361549581e+02, gap 0.0000%

User-callback calls 33326, time in user-callback 2.28 sec
/projects/academic/josewalt/caigao/RRARP_BD/BendersDecomp/ret/model_outs/n_15_e_8_algo_4.out
 =====>>>>> Solution is written to file in <../ret/model_outs> !!!
===>> All Done!
